NAME 
ROWS
 N  OBJ
 E  c0      
 E  c1      
 E  c2      
 E  c3      
 E  c4      
 E  c5      
 E  c6      
 E  c7      
 E  c8      
 E  c9      
 E  c10     
 E  c11     
 E  c12     
 E  c13     
 E  c14     
 E  c15     
 E  c16     
 E  c17     
 E  c18     
 E  c19     
 L  c20     
 L  c21     
 L  c22     
 L  c23     
 G  c24     
 G  c25     
 G  c26     
 G  c27     
 G  c28     
 G  c29     
 G  c30     
 G  c31     
 G  c32     
 G  c33     
 G  c34     
 G  c35     
 G  c36     
 G  c37     
 G  c38     
 G  c39     
 G  c40     
 G  c41     
 G  c42     
 G  c43     
 G  c44     
 G  c45     
 G  c46     
 G  c47     
 G  c48     
 G  c49     
 G  c50     
 G  c51     
 G  c52     
 G  c53     
 G  c54     
 G  c55     
 G  c56     
 G  c57     
 G  c58     
 G  c59     
 G  c60     
 G  c61     
 G  c62     
 G  c63     
 G  c64     
 L  c65     
 G  c66     
 L  c67     
 G  c68     
 L  c69     
 G  c70     
 L  c71     
 G  c72     
 L  c73     
 G  c74     
 L  c75     
 G  c76     
 L  c77     
 G  c78     
 L  c79     
 G  c80     
 L  c81     
 G  c82     
 L  c83     
COLUMNS
    MARKER    'MARKER'                 'INTORG'
    vehicle_1_arc_0_1  OBJ       5
    vehicle_1_arc_0_1  c5        1
    vehicle_1_arc_0_1  c10       -1
    vehicle_1_arc_0_1  c21       1
    vehicle_1_arc_0_2  OBJ       10
    vehicle_1_arc_0_2  c6        1
    vehicle_1_arc_0_2  c12       -1
    vehicle_1_arc_0_2  c21       1
    vehicle_1_arc_0_3  OBJ       20
    vehicle_1_arc_0_3  c7        1
    vehicle_1_arc_0_3  c14       -1
    vehicle_1_arc_0_3  c21       1
    vehicle_1_arc_0_4  OBJ       25
    vehicle_1_arc_0_4  c8        1
    vehicle_1_arc_0_4  c16       -1
    vehicle_1_arc_0_4  c21       1
    vehicle_1_arc_0_5  OBJ       30
    vehicle_1_arc_0_5  c9        1
    vehicle_1_arc_0_5  c18       -1
    vehicle_1_arc_0_5  c21       1
    vehicle_1_arc_1_0  OBJ       5
    vehicle_1_arc_1_0  c0        1
    vehicle_1_arc_1_0  c10       1
    vehicle_1_arc_1_0  c20       10
    vehicle_1_arc_1_0  c21       -1
    vehicle_1_arc_1_2  OBJ       15
    vehicle_1_arc_1_2  c0        1
    vehicle_1_arc_1_2  c6        1
    vehicle_1_arc_1_2  c10       1
    vehicle_1_arc_1_2  c12       -1
    vehicle_1_arc_1_2  c20       10
    vehicle_1_arc_1_2  c24       -100
    vehicle_1_arc_1_3  OBJ       30
    vehicle_1_arc_1_3  c0        1
    vehicle_1_arc_1_3  c7        1
    vehicle_1_arc_1_3  c10       1
    vehicle_1_arc_1_3  c14       -1
    vehicle_1_arc_1_3  c20       10
    vehicle_1_arc_1_3  c26       -100
    vehicle_1_arc_1_4  OBJ       25
    vehicle_1_arc_1_4  c0        1
    vehicle_1_arc_1_4  c8        1
    vehicle_1_arc_1_4  c10       1
    vehicle_1_arc_1_4  c16       -1
    vehicle_1_arc_1_4  c20       10
    vehicle_1_arc_1_4  c28       -100
    vehicle_1_arc_1_5  OBJ       20
    vehicle_1_arc_1_5  c0        1
    vehicle_1_arc_1_5  c9        1
    vehicle_1_arc_1_5  c10       1
    vehicle_1_arc_1_5  c18       -1
    vehicle_1_arc_1_5  c20       10
    vehicle_1_arc_1_5  c30       -100
    vehicle_1_arc_2_0  OBJ       10
    vehicle_1_arc_2_0  c1        1
    vehicle_1_arc_2_0  c12       1
    vehicle_1_arc_2_0  c20       20
    vehicle_1_arc_2_0  c21       -1
    vehicle_1_arc_2_1  OBJ       15
    vehicle_1_arc_2_1  c1        1
    vehicle_1_arc_2_1  c5        1
    vehicle_1_arc_2_1  c10       -1
    vehicle_1_arc_2_1  c12       1
    vehicle_1_arc_2_1  c20       20
    vehicle_1_arc_2_1  c32       -100
    vehicle_1_arc_2_3  OBJ       10
    vehicle_1_arc_2_3  c1        1
    vehicle_1_arc_2_3  c7        1
    vehicle_1_arc_2_3  c12       1
    vehicle_1_arc_2_3  c14       -1
    vehicle_1_arc_2_3  c20       20
    vehicle_1_arc_2_3  c34       -100
    vehicle_1_arc_2_4  OBJ       20
    vehicle_1_arc_2_4  c1        1
    vehicle_1_arc_2_4  c8        1
    vehicle_1_arc_2_4  c12       1
    vehicle_1_arc_2_4  c16       -1
    vehicle_1_arc_2_4  c20       20
    vehicle_1_arc_2_4  c36       -100
    vehicle_1_arc_2_5  OBJ       25
    vehicle_1_arc_2_5  c1        1
    vehicle_1_arc_2_5  c9        1
    vehicle_1_arc_2_5  c12       1
    vehicle_1_arc_2_5  c18       -1
    vehicle_1_arc_2_5  c20       20
    vehicle_1_arc_2_5  c38       -100
    vehicle_1_arc_3_0  OBJ       20
    vehicle_1_arc_3_0  c2        1
    vehicle_1_arc_3_0  c14       1
    vehicle_1_arc_3_0  c20       30
    vehicle_1_arc_3_0  c21       -1
    vehicle_1_arc_3_1  OBJ       30
    vehicle_1_arc_3_1  c2        1
    vehicle_1_arc_3_1  c5        1
    vehicle_1_arc_3_1  c10       -1
    vehicle_1_arc_3_1  c14       1
    vehicle_1_arc_3_1  c20       30
    vehicle_1_arc_3_1  c40       -100
    vehicle_1_arc_3_2  OBJ       10
    vehicle_1_arc_3_2  c2        1
    vehicle_1_arc_3_2  c6        1
    vehicle_1_arc_3_2  c12       -1
    vehicle_1_arc_3_2  c14       1
    vehicle_1_arc_3_2  c20       30
    vehicle_1_arc_3_2  c42       -100
    vehicle_1_arc_3_4  OBJ       15
    vehicle_1_arc_3_4  c2        1
    vehicle_1_arc_3_4  c8        1
    vehicle_1_arc_3_4  c14       1
    vehicle_1_arc_3_4  c16       -1
    vehicle_1_arc_3_4  c20       30
    vehicle_1_arc_3_4  c44       -100
    vehicle_1_arc_3_5  OBJ       20
    vehicle_1_arc_3_5  c2        1
    vehicle_1_arc_3_5  c9        1
    vehicle_1_arc_3_5  c14       1
    vehicle_1_arc_3_5  c18       -1
    vehicle_1_arc_3_5  c20       30
    vehicle_1_arc_3_5  c46       -100
    vehicle_1_arc_4_0  OBJ       25
    vehicle_1_arc_4_0  c3        1
    vehicle_1_arc_4_0  c16       1
    vehicle_1_arc_4_0  c20       40
    vehicle_1_arc_4_0  c21       -1
    vehicle_1_arc_4_1  OBJ       25
    vehicle_1_arc_4_1  c3        1
    vehicle_1_arc_4_1  c5        1
    vehicle_1_arc_4_1  c10       -1
    vehicle_1_arc_4_1  c16       1
    vehicle_1_arc_4_1  c20       40
    vehicle_1_arc_4_1  c48       -100
    vehicle_1_arc_4_2  OBJ       20
    vehicle_1_arc_4_2  c3        1
    vehicle_1_arc_4_2  c6        1
    vehicle_1_arc_4_2  c12       -1
    vehicle_1_arc_4_2  c16       1
    vehicle_1_arc_4_2  c20       40
    vehicle_1_arc_4_2  c50       -100
    vehicle_1_arc_4_3  OBJ       15
    vehicle_1_arc_4_3  c3        1
    vehicle_1_arc_4_3  c7        1
    vehicle_1_arc_4_3  c14       -1
    vehicle_1_arc_4_3  c16       1
    vehicle_1_arc_4_3  c20       40
    vehicle_1_arc_4_3  c52       -100
    vehicle_1_arc_4_5  OBJ       10
    vehicle_1_arc_4_5  c3        1
    vehicle_1_arc_4_5  c9        1
    vehicle_1_arc_4_5  c16       1
    vehicle_1_arc_4_5  c18       -1
    vehicle_1_arc_4_5  c20       40
    vehicle_1_arc_4_5  c54       -100
    vehicle_1_arc_5_0  OBJ       30
    vehicle_1_arc_5_0  c4        1
    vehicle_1_arc_5_0  c18       1
    vehicle_1_arc_5_0  c20       50
    vehicle_1_arc_5_0  c21       -1
    vehicle_1_arc_5_1  OBJ       20
    vehicle_1_arc_5_1  c4        1
    vehicle_1_arc_5_1  c5        1
    vehicle_1_arc_5_1  c10       -1
    vehicle_1_arc_5_1  c18       1
    vehicle_1_arc_5_1  c20       50
    vehicle_1_arc_5_1  c56       -100
    vehicle_1_arc_5_2  OBJ       25
    vehicle_1_arc_5_2  c4        1
    vehicle_1_arc_5_2  c6        1
    vehicle_1_arc_5_2  c12       -1
    vehicle_1_arc_5_2  c18       1
    vehicle_1_arc_5_2  c20       50
    vehicle_1_arc_5_2  c58       -100
    vehicle_1_arc_5_3  OBJ       20
    vehicle_1_arc_5_3  c4        1
    vehicle_1_arc_5_3  c7        1
    vehicle_1_arc_5_3  c14       -1
    vehicle_1_arc_5_3  c18       1
    vehicle_1_arc_5_3  c20       50
    vehicle_1_arc_5_3  c60       -100
    vehicle_1_arc_5_4  OBJ       10
    vehicle_1_arc_5_4  c4        1
    vehicle_1_arc_5_4  c8        1
    vehicle_1_arc_5_4  c16       -1
    vehicle_1_arc_5_4  c18       1
    vehicle_1_arc_5_4  c20       50
    vehicle_1_arc_5_4  c62       -100
    vehicle_2_arc_0_1  OBJ       5
    vehicle_2_arc_0_1  c5        1
    vehicle_2_arc_0_1  c11       -1
    vehicle_2_arc_0_1  c23       1
    vehicle_2_arc_0_2  OBJ       10
    vehicle_2_arc_0_2  c6        1
    vehicle_2_arc_0_2  c13       -1
    vehicle_2_arc_0_2  c23       1
    vehicle_2_arc_0_3  OBJ       20
    vehicle_2_arc_0_3  c7        1
    vehicle_2_arc_0_3  c15       -1
    vehicle_2_arc_0_3  c23       1
    vehicle_2_arc_0_4  OBJ       25
    vehicle_2_arc_0_4  c8        1
    vehicle_2_arc_0_4  c17       -1
    vehicle_2_arc_0_4  c23       1
    vehicle_2_arc_0_5  OBJ       30
    vehicle_2_arc_0_5  c9        1
    vehicle_2_arc_0_5  c19       -1
    vehicle_2_arc_0_5  c23       1
    vehicle_2_arc_1_0  OBJ       5
    vehicle_2_arc_1_0  c0        1
    vehicle_2_arc_1_0  c11       1
    vehicle_2_arc_1_0  c22       10
    vehicle_2_arc_1_0  c23       -1
    vehicle_2_arc_1_2  OBJ       15
    vehicle_2_arc_1_2  c0        1
    vehicle_2_arc_1_2  c6        1
    vehicle_2_arc_1_2  c11       1
    vehicle_2_arc_1_2  c13       -1
    vehicle_2_arc_1_2  c22       10
    vehicle_2_arc_1_2  c25       -100
    vehicle_2_arc_1_3  OBJ       30
    vehicle_2_arc_1_3  c0        1
    vehicle_2_arc_1_3  c7        1
    vehicle_2_arc_1_3  c11       1
    vehicle_2_arc_1_3  c15       -1
    vehicle_2_arc_1_3  c22       10
    vehicle_2_arc_1_3  c27       -100
    vehicle_2_arc_1_4  OBJ       25
    vehicle_2_arc_1_4  c0        1
    vehicle_2_arc_1_4  c8        1
    vehicle_2_arc_1_4  c11       1
    vehicle_2_arc_1_4  c17       -1
    vehicle_2_arc_1_4  c22       10
    vehicle_2_arc_1_4  c29       -100
    vehicle_2_arc_1_5  OBJ       20
    vehicle_2_arc_1_5  c0        1
    vehicle_2_arc_1_5  c9        1
    vehicle_2_arc_1_5  c11       1
    vehicle_2_arc_1_5  c19       -1
    vehicle_2_arc_1_5  c22       10
    vehicle_2_arc_1_5  c31       -100
    vehicle_2_arc_2_0  OBJ       10
    vehicle_2_arc_2_0  c1        1
    vehicle_2_arc_2_0  c13       1
    vehicle_2_arc_2_0  c22       20
    vehicle_2_arc_2_0  c23       -1
    vehicle_2_arc_2_1  OBJ       15
    vehicle_2_arc_2_1  c1        1
    vehicle_2_arc_2_1  c5        1
    vehicle_2_arc_2_1  c11       -1
    vehicle_2_arc_2_1  c13       1
    vehicle_2_arc_2_1  c22       20
    vehicle_2_arc_2_1  c33       -100
    vehicle_2_arc_2_3  OBJ       10
    vehicle_2_arc_2_3  c1        1
    vehicle_2_arc_2_3  c7        1
    vehicle_2_arc_2_3  c13       1
    vehicle_2_arc_2_3  c15       -1
    vehicle_2_arc_2_3  c22       20
    vehicle_2_arc_2_3  c35       -100
    vehicle_2_arc_2_4  OBJ       20
    vehicle_2_arc_2_4  c1        1
    vehicle_2_arc_2_4  c8        1
    vehicle_2_arc_2_4  c13       1
    vehicle_2_arc_2_4  c17       -1
    vehicle_2_arc_2_4  c22       20
    vehicle_2_arc_2_4  c37       -100
    vehicle_2_arc_2_5  OBJ       25
    vehicle_2_arc_2_5  c1        1
    vehicle_2_arc_2_5  c9        1
    vehicle_2_arc_2_5  c13       1
    vehicle_2_arc_2_5  c19       -1
    vehicle_2_arc_2_5  c22       20
    vehicle_2_arc_2_5  c39       -100
    vehicle_2_arc_3_0  OBJ       20
    vehicle_2_arc_3_0  c2        1
    vehicle_2_arc_3_0  c15       1
    vehicle_2_arc_3_0  c22       30
    vehicle_2_arc_3_0  c23       -1
    vehicle_2_arc_3_1  OBJ       30
    vehicle_2_arc_3_1  c2        1
    vehicle_2_arc_3_1  c5        1
    vehicle_2_arc_3_1  c11       -1
    vehicle_2_arc_3_1  c15       1
    vehicle_2_arc_3_1  c22       30
    vehicle_2_arc_3_1  c41       -100
    vehicle_2_arc_3_2  OBJ       10
    vehicle_2_arc_3_2  c2        1
    vehicle_2_arc_3_2  c6        1
    vehicle_2_arc_3_2  c13       -1
    vehicle_2_arc_3_2  c15       1
    vehicle_2_arc_3_2  c22       30
    vehicle_2_arc_3_2  c43       -100
    vehicle_2_arc_3_4  OBJ       15
    vehicle_2_arc_3_4  c2        1
    vehicle_2_arc_3_4  c8        1
    vehicle_2_arc_3_4  c15       1
    vehicle_2_arc_3_4  c17       -1
    vehicle_2_arc_3_4  c22       30
    vehicle_2_arc_3_4  c45       -100
    vehicle_2_arc_3_5  OBJ       20
    vehicle_2_arc_3_5  c2        1
    vehicle_2_arc_3_5  c9        1
    vehicle_2_arc_3_5  c15       1
    vehicle_2_arc_3_5  c19       -1
    vehicle_2_arc_3_5  c22       30
    vehicle_2_arc_3_5  c47       -100
    vehicle_2_arc_4_0  OBJ       25
    vehicle_2_arc_4_0  c3        1
    vehicle_2_arc_4_0  c17       1
    vehicle_2_arc_4_0  c22       40
    vehicle_2_arc_4_0  c23       -1
    vehicle_2_arc_4_1  OBJ       25
    vehicle_2_arc_4_1  c3        1
    vehicle_2_arc_4_1  c5        1
    vehicle_2_arc_4_1  c11       -1
    vehicle_2_arc_4_1  c17       1
    vehicle_2_arc_4_1  c22       40
    vehicle_2_arc_4_1  c49       -100
    vehicle_2_arc_4_2  OBJ       20
    vehicle_2_arc_4_2  c3        1
    vehicle_2_arc_4_2  c6        1
    vehicle_2_arc_4_2  c13       -1
    vehicle_2_arc_4_2  c17       1
    vehicle_2_arc_4_2  c22       40
    vehicle_2_arc_4_2  c51       -100
    vehicle_2_arc_4_3  OBJ       15
    vehicle_2_arc_4_3  c3        1
    vehicle_2_arc_4_3  c7        1
    vehicle_2_arc_4_3  c15       -1
    vehicle_2_arc_4_3  c17       1
    vehicle_2_arc_4_3  c22       40
    vehicle_2_arc_4_3  c53       -100
    vehicle_2_arc_4_5  OBJ       10
    vehicle_2_arc_4_5  c3        1
    vehicle_2_arc_4_5  c9        1
    vehicle_2_arc_4_5  c17       1
    vehicle_2_arc_4_5  c19       -1
    vehicle_2_arc_4_5  c22       40
    vehicle_2_arc_4_5  c55       -100
    vehicle_2_arc_5_0  OBJ       30
    vehicle_2_arc_5_0  c4        1
    vehicle_2_arc_5_0  c19       1
    vehicle_2_arc_5_0  c22       50
    vehicle_2_arc_5_0  c23       -1
    vehicle_2_arc_5_1  OBJ       20
    vehicle_2_arc_5_1  c4        1
    vehicle_2_arc_5_1  c5        1
    vehicle_2_arc_5_1  c11       -1
    vehicle_2_arc_5_1  c19       1
    vehicle_2_arc_5_1  c22       50
    vehicle_2_arc_5_1  c57       -100
    vehicle_2_arc_5_2  OBJ       25
    vehicle_2_arc_5_2  c4        1
    vehicle_2_arc_5_2  c6        1
    vehicle_2_arc_5_2  c13       -1
    vehicle_2_arc_5_2  c19       1
    vehicle_2_arc_5_2  c22       50
    vehicle_2_arc_5_2  c59       -100
    vehicle_2_arc_5_3  OBJ       20
    vehicle_2_arc_5_3  c4        1
    vehicle_2_arc_5_3  c7        1
    vehicle_2_arc_5_3  c15       -1
    vehicle_2_arc_5_3  c19       1
    vehicle_2_arc_5_3  c22       50
    vehicle_2_arc_5_3  c61       -100
    vehicle_2_arc_5_4  OBJ       10
    vehicle_2_arc_5_4  c4        1
    vehicle_2_arc_5_4  c8        1
    vehicle_2_arc_5_4  c17       -1
    vehicle_2_arc_5_4  c19       1
    vehicle_2_arc_5_4  c22       50
    vehicle_2_arc_5_4  c63       -100
    vehicle_1_node_0  OBJ       0
    vehicle_1_node_1  OBJ       0
    vehicle_1_node_2  OBJ       0
    vehicle_1_node_3  OBJ       0
    vehicle_1_node_4  OBJ       0
    vehicle_1_node_5  OBJ       0
    vehicle_2_node_0  OBJ       0
    vehicle_2_node_1  c24       -1
    vehicle_2_node_1  c25       -1
    vehicle_2_node_1  c26       -1
    vehicle_2_node_1  c27       -1
    vehicle_2_node_1  c28       -1
    vehicle_2_node_1  c29       -1
    vehicle_2_node_1  c30       -1
    vehicle_2_node_1  c31       -1
    vehicle_2_node_1  c32       1
    vehicle_2_node_1  c33       1
    vehicle_2_node_1  c40       1
    vehicle_2_node_1  c41       1
    vehicle_2_node_1  c48       1
    vehicle_2_node_1  c49       1
    vehicle_2_node_1  c56       1
    vehicle_2_node_1  c57       1
    vehicle_2_node_1  c64       1
    vehicle_2_node_1  c65       1
    vehicle_2_node_1  c66       1
    vehicle_2_node_1  c67       1
    vehicle_2_node_2  c24       1
    vehicle_2_node_2  c25       1
    vehicle_2_node_2  c32       -1
    vehicle_2_node_2  c33       -1
    vehicle_2_node_2  c34       -1
    vehicle_2_node_2  c35       -1
    vehicle_2_node_2  c36       -1
    vehicle_2_node_2  c37       -1
    vehicle_2_node_2  c38       -1
    vehicle_2_node_2  c39       -1
    vehicle_2_node_2  c42       1
    vehicle_2_node_2  c43       1
    vehicle_2_node_2  c50       1
    vehicle_2_node_2  c51       1
    vehicle_2_node_2  c58       1
    vehicle_2_node_2  c59       1
    vehicle_2_node_2  c68       1
    vehicle_2_node_2  c69       1
    vehicle_2_node_2  c70       1
    vehicle_2_node_2  c71       1
    vehicle_2_node_3  c26       1
    vehicle_2_node_3  c27       1
    vehicle_2_node_3  c34       1
    vehicle_2_node_3  c35       1
    vehicle_2_node_3  c40       -1
    vehicle_2_node_3  c41       -1
    vehicle_2_node_3  c42       -1
    vehicle_2_node_3  c43       -1
    vehicle_2_node_3  c44       -1
    vehicle_2_node_3  c45       -1
    vehicle_2_node_3  c46       -1
    vehicle_2_node_3  c47       -1
    vehicle_2_node_3  c52       1
    vehicle_2_node_3  c53       1
    vehicle_2_node_3  c60       1
    vehicle_2_node_3  c61       1
    vehicle_2_node_3  c72       1
    vehicle_2_node_3  c73       1
    vehicle_2_node_3  c74       1
    vehicle_2_node_3  c75       1
    vehicle_2_node_4  c28       1
    vehicle_2_node_4  c29       1
    vehicle_2_node_4  c36       1
    vehicle_2_node_4  c37       1
    vehicle_2_node_4  c44       1
    vehicle_2_node_4  c45       1
    vehicle_2_node_4  c48       -1
    vehicle_2_node_4  c49       -1
    vehicle_2_node_4  c50       -1
    vehicle_2_node_4  c51       -1
    vehicle_2_node_4  c52       -1
    vehicle_2_node_4  c53       -1
    vehicle_2_node_4  c54       -1
    vehicle_2_node_4  c55       -1
    vehicle_2_node_4  c62       1
    vehicle_2_node_4  c63       1
    vehicle_2_node_4  c76       1
    vehicle_2_node_4  c77       1
    vehicle_2_node_4  c78       1
    vehicle_2_node_4  c79       1
    vehicle_2_node_5  c30       1
    vehicle_2_node_5  c31       1
    vehicle_2_node_5  c38       1
    vehicle_2_node_5  c39       1
    vehicle_2_node_5  c46       1
    vehicle_2_node_5  c47       1
    vehicle_2_node_5  c54       1
    vehicle_2_node_5  c55       1
    vehicle_2_node_5  c56       -1
    vehicle_2_node_5  c57       -1
    vehicle_2_node_5  c58       -1
    vehicle_2_node_5  c59       -1
    vehicle_2_node_5  c60       -1
    vehicle_2_node_5  c61       -1
    vehicle_2_node_5  c62       -1
    vehicle_2_node_5  c63       -1
    vehicle_2_node_5  c80       1
    vehicle_2_node_5  c81       1
    vehicle_2_node_5  c82       1
    vehicle_2_node_5  c83       1
    MARKER    'MARKER'                 'INTEND'
RHS
    RHS1      c0        1
    RHS1      c1        1
    RHS1      c2        1
    RHS1      c3        1
    RHS1      c4        1
    RHS1      c5        1
    RHS1      c6        1
    RHS1      c7        1
    RHS1      c8        1
    RHS1      c9        1
    RHS1      c20       100
    RHS1      c21       1
    RHS1      c22       100
    RHS1      c23       1
    RHS1      c24       -80
    RHS1      c25       -80
    RHS1      c26       -70
    RHS1      c27       -70
    RHS1      c28       -60
    RHS1      c29       -60
    RHS1      c30       -50
    RHS1      c31       -50
    RHS1      c32       -90
    RHS1      c33       -90
    RHS1      c34       -70
    RHS1      c35       -70
    RHS1      c36       -60
    RHS1      c37       -60
    RHS1      c38       -50
    RHS1      c39       -50
    RHS1      c40       -90
    RHS1      c41       -90
    RHS1      c42       -80
    RHS1      c43       -80
    RHS1      c44       -60
    RHS1      c45       -60
    RHS1      c46       -50
    RHS1      c47       -50
    RHS1      c48       -90
    RHS1      c49       -90
    RHS1      c50       -80
    RHS1      c51       -80
    RHS1      c52       -70
    RHS1      c53       -70
    RHS1      c54       -50
    RHS1      c55       -50
    RHS1      c56       -90
    RHS1      c57       -90
    RHS1      c58       -80
    RHS1      c59       -80
    RHS1      c60       -70
    RHS1      c61       -70
    RHS1      c62       -60
    RHS1      c63       -60
    RHS1      c64       10
    RHS1      c65       100
    RHS1      c66       10
    RHS1      c67       100
    RHS1      c68       20
    RHS1      c69       100
    RHS1      c70       20
    RHS1      c71       100
    RHS1      c72       30
    RHS1      c73       100
    RHS1      c74       30
    RHS1      c75       100
    RHS1      c76       40
    RHS1      c77       100
    RHS1      c78       40
    RHS1      c79       100
    RHS1      c80       50
    RHS1      c81       100
    RHS1      c82       50
    RHS1      c83       100
BOUNDS
 BV BND1      vehicle_1_arc_0_1
 BV BND1      vehicle_1_arc_0_2
 BV BND1      vehicle_1_arc_0_3
 BV BND1      vehicle_1_arc_0_4
 BV BND1      vehicle_1_arc_0_5
 BV BND1      vehicle_1_arc_1_0
 BV BND1      vehicle_1_arc_1_2
 BV BND1      vehicle_1_arc_1_3
 BV BND1      vehicle_1_arc_1_4
 BV BND1      vehicle_1_arc_1_5
 BV BND1      vehicle_1_arc_2_0
 BV BND1      vehicle_1_arc_2_1
 BV BND1      vehicle_1_arc_2_3
 BV BND1      vehicle_1_arc_2_4
 BV BND1      vehicle_1_arc_2_5
 BV BND1      vehicle_1_arc_3_0
 BV BND1      vehicle_1_arc_3_1
 BV BND1      vehicle_1_arc_3_2
 BV BND1      vehicle_1_arc_3_4
 BV BND1      vehicle_1_arc_3_5
 BV BND1      vehicle_1_arc_4_0
 BV BND1      vehicle_1_arc_4_1
 BV BND1      vehicle_1_arc_4_2
 BV BND1      vehicle_1_arc_4_3
 BV BND1      vehicle_1_arc_4_5
 BV BND1      vehicle_1_arc_5_0
 BV BND1      vehicle_1_arc_5_1
 BV BND1      vehicle_1_arc_5_2
 BV BND1      vehicle_1_arc_5_3
 BV BND1      vehicle_1_arc_5_4
 BV BND1      vehicle_2_arc_0_1
 BV BND1      vehicle_2_arc_0_2
 BV BND1      vehicle_2_arc_0_3
 BV BND1      vehicle_2_arc_0_4
 BV BND1      vehicle_2_arc_0_5
 BV BND1      vehicle_2_arc_1_0
 BV BND1      vehicle_2_arc_1_2
 BV BND1      vehicle_2_arc_1_3
 BV BND1      vehicle_2_arc_1_4
 BV BND1      vehicle_2_arc_1_5
 BV BND1      vehicle_2_arc_2_0
 BV BND1      vehicle_2_arc_2_1
 BV BND1      vehicle_2_arc_2_3
 BV BND1      vehicle_2_arc_2_4
 BV BND1      vehicle_2_arc_2_5
 BV BND1      vehicle_2_arc_3_0
 BV BND1      vehicle_2_arc_3_1
 BV BND1      vehicle_2_arc_3_2
 BV BND1      vehicle_2_arc_3_4
 BV BND1      vehicle_2_arc_3_5
 BV BND1      vehicle_2_arc_4_0
 BV BND1      vehicle_2_arc_4_1
 BV BND1      vehicle_2_arc_4_2
 BV BND1      vehicle_2_arc_4_3
 BV BND1      vehicle_2_arc_4_5
 BV BND1      vehicle_2_arc_5_0
 BV BND1      vehicle_2_arc_5_1
 BV BND1      vehicle_2_arc_5_2
 BV BND1      vehicle_2_arc_5_3
 BV BND1      vehicle_2_arc_5_4
 LI BND1      vehicle_1_node_0  0
 LI BND1      vehicle_1_node_1  0
 LI BND1      vehicle_1_node_2  0
 LI BND1      vehicle_1_node_3  0
 LI BND1      vehicle_1_node_4  0
 LI BND1      vehicle_1_node_5  0
 LI BND1      vehicle_2_node_0  0
 LI BND1      vehicle_2_node_1  0
 LI BND1      vehicle_2_node_2  0
 LI BND1      vehicle_2_node_3  0
 LI BND1      vehicle_2_node_4  0
 LI BND1      vehicle_2_node_5  0
ENDATA
